1
0 0
1 1
119
120
0 1
1 2
118
119
0 2
1 3
117
118
0 3
1 4
116
117
0 4
1 5
115
116
0 5
1 6
114
115
0 6
1 7
113
114
0 7
1 8
112
113
0 8
1 9
111
112
0 9
1 10
110
111
0 10
1 11
109
110
0 11
1 12
108
109
0 12
1 13
107
108
0 13
1 14
106
107
0 14
1 15
105
106
0 15
1 16
104
105
0 16
1 17
103
104
0 17
1 18
102
103
0 18
1 19
101
102
0 19
1 20
100
101
0 20
1 21
99
100
0 21
1 22
98
99
0 22
1 23
97
98
0 23
1 24
96
97
0 24
1 25
95
96
0 25
1 26
94
95
0 26
1 27
93
94
0 27
1 28
92
93
0 28
1 29
91
92
0 29
1 30
90
91
0 30
1 31
89
90
0 31
1 32
88
89
0 32
1 33
87
88
0 33
1 34
86
87
0 34
1 35
85
86
0 35
1 36
84
85
0 36
1 37
83
84
0 37
1 38
82
83
0 38
1 39
81
82
0 39
1 40
80
81
0 40
1 41
79
80
0 41
1 42
78
79
0 42
1 43
77
78
0 43
1 44
76
77
0 44
1 45
75
76
0 45
1 46
74
75
0 46
1 47
73
74
0 47
1 48
72
73
0 48
1 49
71
72
0 49
1 50
70
71
0 50
1 51
69
70
0 51
1 52
68
69
0 52
1 53
67
68
0 53
1 54
66
67
0 54
1 55
65
66
0 55
1 56
64
65
0 56
1 57
63
64
0 57
1 58
62
63
0 58
1 59
61
62
0 59
1 60
60
61
0 60
1 61
59
60
0 61
1 62
58
59
0 62
1 63
57
58
0 63
1 64
56
57
0 64
1 65
55
56
0 65
1 66
54
55
0 66
1 67
53
54
0 67
1 68
52
53
0 68
1 69
51
52
0 69
1 70
50
51
0 70
1 71
49
50
0 71
1 72
48
49
0 72
1 73
47
48
0 73
1 74
46
47
0 74
1 75
45
46
0 75
1 76
44
45
0 76
1 77
43
44
0 77
1 78
42
43
0 78
1 79
41
42
0 79
1 80
40
41
0 80
1 81
39
40
0 81
1 82
38
39
0 82
1 83
37
38
0 83
1 84
36
37
0 84
1 85
35
36
0 85
1 86
34
35
0 86
1 87
33
34
0 87
1 88
32
33
0 88
1 89
31
32
0 89
1 90
30
31
0 90
1 91
29
30
0 91
1 92
28
29
0 92
1 93
27
28
0 93
1 94
26
27
0 94
1 95
25
26
0 95
1 96
24
25
0 96
1 97
23
24
0 97
1 98
22
23
0 98
1 99
21
22
0 99
1 100
20
21
0 100
1 101
19
20
0 101
1 102
18
19
0 102
1 103
17
18
0 103
1 104
16
17
0 104
1 105
15
16
0 105
1 106
14
15
0 106
1 107
13
14
0 107
1 108
12
13
0 108
1 109
11
12
0 109
1 110
10
11
0 110
1 111
9
10
0 111
1 112
8
9
0 112
1 113
7
8
0 113
1 114
6
7
0 114
1 115
5
6
0 115
1 116
4
5
0 116
1 117
3
4
0 117
1 118
2
3
0 118
1 119
1
2
0 119
1 120
0
1
